6795
1 0 0 1 0 1 1 0 0 0 
0 0 0 0 0 0 0 0 0 0 0 3 0 3 3 3 3 3 3 3 3 3 3 3 3 3 3 3 3 3 3 3 3 6 6 6 6 6 6 6 6 6 3 6 6 6 6 5 5 5 5 5 5 5 6 6 6 6 6 6 6 6 5 5 6 5 4 0 7 7 7 7 7 8 8 8 8 8 9 8 0 9 9 9 9 2 2 2 9 2 
